unsat
(forall ((A (_ BitVec 1))
         (B (_ BitVec 1))
         (C (_ BitVec 1))
         (D (_ BitVec 1))
         (E (_ BitVec 1))
         (F (_ BitVec 1))
         (G (_ BitVec 32))
         (H (_ BitVec 22))
         (I (_ BitVec 1))
         (J (_ BitVec 1))
         (K (_ BitVec 32))
         (L (_ BitVec 1))
         (M (_ BitVec 1))
         (N (_ BitVec 22))
         (O (_ BitVec 1))
         (P (_ BitVec 2))
         (Q (_ BitVec 1))
         (R (_ BitVec 1))
         (S (_ BitVec 1))
         (T (_ BitVec 1))
         (U (_ BitVec 1))
         (V (_ BitVec 1))
         (W (_ BitVec 1))
         (X (_ BitVec 34))
         (Y (_ BitVec 6))
         (Z (_ BitVec 1))
         (A1 (_ BitVec 1))
         (B1 (_ BitVec 1))
         (C1 (_ BitVec 2))
         (D1 (_ BitVec 6))
         (E1 (_ BitVec 38))
         (F1 (_ BitVec 1))
         (G1 (_ BitVec 2))
         (H1 (_ BitVec 1))
         (I1 (_ BitVec 1))
         (J1 (_ BitVec 1))
         (K1 (_ BitVec 1))
         (L1 (_ BitVec 1))
         (M1 (_ BitVec 1))
         (N1 (_ BitVec 1))
         (O1 (_ BitVec 1))
         (P1 (_ BitVec 1))
         (Q1 (_ BitVec 22))
         (R1 (_ BitVec 32))
         (S1 (_ BitVec 3))
         (T1 (_ BitVec 6))
         (U1 (_ BitVec 1))
         (V1 (_ BitVec 1))
         (W1 (_ BitVec 1))
         (X1 (_ BitVec 1))
         (Y1 (_ BitVec 1))
         (Z1 (_ BitVec 32))
         (A2 (_ BitVec 1))
         (B2 (_ BitVec 2))
         (C2 (_ BitVec 1))
         (D2 (_ BitVec 22))
         (E2 (_ BitVec 1)))
  (! (let ((a!1 (or (= U #b1)
                    ((_ bit2bool 0) L)
                    (not (= ((_ extract 1 1) C1) #b1))
                    (not (= I1 #b1))))
           (a!2 (not (or (= I #b0) (= K1 #b0) (not (= D1 #b000010)))))
           (a!3 (not (or (= I #b0) (= K1 #b0) (not (= D1 #b000001)))))
           (a!5 (or (= J1 #b1)
                    (not (= O1 #b0))
                    (not (= I1 #b1))
                    (not ((_ bit2bool 0) V1))
                    (not (= ((_ extract 0 0) S1) #b1))))
           (a!6 (or (= C1 #b00)
                    (not (= O1 #b0))
                    (not (= I1 #b1))
                    ((_ bit2bool 2) D1)
                    (not ((_ bit2bool 0) V1))
                    (not (= ((_ extract 0 0) S1) #b1))))
           (a!7 (or (not (= O1 #b0))
                    (not (= I1 #b1))
                    (not ((_ bit2bool 0) V1))
                    (not (= W1 #b0))
                    (not (= ((_ extract 0 0) S1) #b1))))
           (a!8 (or (not ((_ bit2bool 0) H1))
                    (not (= ((_ extract 0 0) S1) #b1))))
           (a!9 (or (not (= ((_ extract 5 5) D1) #b0))
                    (not (= ((_ extract 4 4) D1) #b0))
                    (not (= ((_ extract 3 3) D1) #b0))
                    (not (= ((_ extract 1 1) D1) #b0))
                    (not (= ((_ extract 2 2) D1) #b0))
                    (not (= ((_ extract 0 0) D1) #b0))))
           (a!11 (not (ite (= Q #b1)
                           (= ((_ extract 30 30) X) #b1)
                           (= ((_ extract 32 32) X) #b1))))
           (a!12 (not (ite (= Q #b1)
                           (= ((_ extract 5 1) D1) #b00000)
                           (= A1 #b1))))
           (a!13 (or (not (= O1 #b0))
                     (not ((_ bit2bool 0) V1))
                     (not ((_ bit2bool 0) A1))
                     (not (= ((_ extract 1 1) S1) #b1))))
           (a!15 (or (not (= C1 #b10))
                     (not (= Q #b1))
                     (not (= ((_ extract 5 1) D1) #b00000))))
           (a!16 (or (= I1 #b0) (not (= ((_ extract 5 1) D1) #b00000))))
           (a!18 (or (= J1 #b1)
                     (not (= O1 #b0))
                     (not (= I1 #b1))
                     (not ((_ bit2bool 0) V1))
                     (not (= ((_ extract 1 1) S1) #b1))))
           (a!19 (or (= Q #b0)
                     (and (= ((_ extract 4 4) D1) #b0)
                          (= ((_ extract 3 3) D1) #b0)
                          (= ((_ extract 2 2) D1) #b0)
                          (= ((_ extract 1 1) D1) #b0)
                          (= ((_ extract 0 0) D1) #b0)
                          (= ((_ extract 5 5) D1) #b0))))
           (a!21 (ite (= Q #b1)
                      (= ((_ extract 3 3) E1) #b0)
                      (= ((_ extract 4 4) E1) #b0)))
           (a!22 (not (= ((_ extract 5 5) (bvadd #b111111 D1)) #b0)))
           (a!24 (or (not (= Q #b1))
                     (not (= O1 #b0))
                     (not ((_ bit2bool 0) V1))
                     (bvule (bvadd #b11111 ((_ extract 4 0) D1)) #b10001)))
           (a!25 (not (ite (= Q #b1)
                           (= ((_ extract 28 28) X) #b1)
                           (= ((_ extract 30 30) X) #b1))))
           (a!26 (= (ite (= Q #b1) (concat ((_ extract 31 0) X) #b00) X)
                    #b0101000000000000000000000000000000))
           (a!27 (ite (= Q #b1)
                      (concat ((_ extract 29 0) X) #b00)
                      ((_ extract 31 0) X)))
           (a!28 (= (ite (= Q #b1) (concat ((_ extract 31 0) X) #b00) X)
                    #b0101000000000000000000100000000000))
           (a!29 (or (not (= ((_ extract 1 1) X) #b1))
                     (= ((_ extract 4 4) E1) #b0)))
           (a!30 (or (not (= ((_ extract 0 0) X) #b1))
                     (= ((_ extract 4 4) E1) #b0)))
           (a!32 (or (not (= I #b1))
                     (not (= V1 #b0))
                     (not (= N (bvadd #b0000000000000000000001 Q1))))))
     (let ((a!4 (ite (= Q #b1) (or a!2 (= ((_ extract 5 1) D1) #b00000)) a!3))
           (a!10 (= (ite (or (= Q #b0) (not a!9)) D1 (bvadd #b111111 D1))
                    #b000000))
           (a!14 (= (ite (or (= Q #b0) (not a!9))
                         ((_ extract 5 1) D1)
                         ((_ extract 5 1) (bvadd #b111111 D1)))
                    #b00000))
           (a!17 (ite (or (= Q #b0) (= F1 #b0))
                      (= F1 #b1)
                      (or (= ((_ extract 5 1) D1) #b00000) (not a!16))))
           (a!20 (ite a!19
                      (= ((_ extract 5 5) D1) #b0)
                      (= ((_ extract 5 5) (bvadd #b111111 D1)) #b0)))
           (a!23 (or (not (= Z #b0))
                     (not (= S1 #b001))
                     a!11
                     (and (not (= D1 #b000000))
                          (not (= K1 #b0))
                          (not (= F1 #b0)))))
           (a!31 (or (not (= O1 #b0))
                     a!21
                     (ite (= Q #b1)
                          (= ((_ extract 5 5) X) #b1)
                          (= ((_ extract 7 7) X) #b1)))))
     (let ((a!33 (and (or (not (= S1 #b001)) (= C1 #b00))
                      (or (= F1 #b1) (not (= L1 #b0)))
                      (or (= D1 #b000000) (not (= N1 #b1)))
                      (not ((_ bit2bool 6) E1))
                      (not (= W #b1))
                      (or (= Q #b0) (= S1 #b000))
                      a!1
                      (ite (= Q #b1)
                           (= ((_ extract 4 4) E1) #b0)
                           (= ((_ extract 5 5) E1) #b0))
                      (or (not (= N1 #b1)) (= ((_ extract 2 2) S1) #b1))
                      (or (not ((_ bit2bool 0) H1)) (not (= D1 #b000000)))
                      (or (not (= J1 #b1)) (not (= H1 #b1)) (not (= F1 #b0)))
                      (or (not ((_ bit2bool 0) V1))
                          (not (= D1 #b000000))
                          (= ((_ extract 2 2) S1) #b1))
                      (or (not ((_ bit2bool 0) V1))
                          (not (= D1 #b000000))
                          (not (= A2 #b1)))
                      (or (= D1 #b000000)
                          (not ((_ bit2bool 4) E1))
                          (not (= V1 #b0)))
                      (or (= B1 #b0) ((_ bit2bool 0) F1) (not (= V1 #b0)))
                      (or (= S1 #b000) (not ((_ bit2bool 0) J1)) (not a!4))
                      (or (= S1 #b000) (not (= I1 #b1)) (not a!4))
                      (or (not (= Q #b1))
                          ((_ bit2bool 0) M)
                          ((_ bit2bool 0) Z)
                          (not (= S #b1)))
                      (or (not (= S1 #b001)) (not (= K1 #b0)))
                      (or (not ((_ bit2bool 0) H1)) (not (= Z #b0)) (= F1 #b1))
                      a!5
                      (or (not (= Z #b0))
                          (not (= S1 #b001))
                          ((_ bit2bool 0) F1)
                          (not ((_ bit2bool 0) B1)))
                      a!6
                      a!7
                      (or (not (= K1 #b1)) (= ((_ extract 0 0) S1) #b1))
                      a!8
                      (or (not (= L #b0)) (not (= I #b1)))
                      (or (= D1 #b000000)
                          (not (= M #b0))
                          ((_ bit2bool 0) Z)
                          (not (= S #b1)))
                      (or (not (= S1 #b010))
                          ((_ bit2bool 0) F1)
                          (= ((_ extract 4 4) D1) #b1))
                      (or (not (= V #b0))
                          (not ((_ bit2bool 1) S1))
                          (not ((_ bit2bool 0) S1)))
                      (or (not (= S1 #b001))
                          ((_ bit2bool 0) F1)
                          (= ((_ extract 4 4) D1) #b1))
                      (or (not (= Q #b1))
                          ((_ bit2bool 0) F1)
                          (= ((_ extract 4 4) D1) #b1))
                      (or (not (= Q #b1)) (not (= L #b0)) (not (= S #b1)))
                      (or (not (= D1 #b000001))
                          (not (= Q #b1))
                          ((_ bit2bool 0) H1))
                      (or ((_ bit2bool 0) F1) (not (= D1 #b000000)))
                      (or (not (= Z #b0))
                          (not (= S1 #b100))
                          ((_ bit2bool 0) F1)
                          (not ((_ bit2bool 0) B1)))
                      (or (not ((_ bit2bool 0) V1))
                          (not (= D1 #b000000))
                          (= C1 #b00))
                      (or (not (= Q #b1))
                          (not (= S #b1))
                          (not ((_ bit2bool 0) V1)))
                      (or (not ((_ bit2bool 32) X)) (not (= O1 #b0)))
                      (or (not ((_ bit2bool 0) H1)) (not ((_ bit2bool 4) E1)))
                      (or (not ((_ bit2bool 1) S1))
                          (not (= Z #b0))
                          ((_ bit2bool 0) F1)
                          (not ((_ bit2bool 0) B1)))
                      (or a!10 a!11 a!12)
                      (or (not (= M #b0)) (not (= F1 #b0)) (not (= A1 #b1)))
                      (or (= J1 #b1) (not (= F1 #b0)) (not (= A1 #b1)))
                      a!13
                      (or ((_ bit2bool 1) S1) (not (= V #b1)))
                      (or (= ((_ extract 5 1) D1) #b00000)
                          (not (= H1 #b0))
                          (not a!14))
                      (or (= I1 #b1)
                          (not (= M #b0))
                          ((_ bit2bool 1) C1)
                          ((_ bit2bool 0) F1)
                          (not ((_ bit2bool 0) B1))
                          (not a!14))
                      a!15
                      (or (not (= Q #b1))
                          (not ((_ bit2bool 32) X))
                          (not (= H1 #b0))
                          (= ((_ extract 4 4) D1) #b1))
                      (or ((_ bit2bool 0) Z) (not (= I #b1)))
                      (or (not (= Q #b1)) (not (= D1 #b000000)) (= C1 #b00))
                      (or (not (= N1 #b1)) (= ((_ extract 0 0) S1) #b1))
                      (or ((_ bit2bool 0) O1) (not (= I #b1)) (not (= V1 #b0)))
                      (or (= ((_ extract 1 1) C1) #b1)
                          (not (= Q #b1))
                          (not (= M #b0))
                          (not ((_ bit2bool 0) F1))
                          (not ((_ bit2bool 0) V1))
                          ((_ bit2bool 0) H1))
                      (or (not (= Z #b0)) (not (= S1 #b010)) a!17)
                      (or (not (= S1 #b010)) (= ((_ extract 0 0) C1) #b1) a!17)
                      (or (not (= M #b0))
                          (not (= S1 #b001))
                          (= ((_ extract 0 0) C1) #b1)
                          ((_ bit2bool 0) F1)
                          (not (= I1 #b0)))
                      (or (= J1 #b1)
                          (not (= S1 #b001))
                          (= ((_ extract 0 0) C1) #b1)
                          (= F1 #b1)
                          (not (= I1 #b0)))
                      (or (not (= Q #b1))
                          ((_ bit2bool 12) R1)
                          (= ((_ extract 0 0) C1) #b1)
                          ((_ bit2bool 0) F1))
                      (or (not (= S1 #b001))
                          (= ((_ extract 0 0) C1) #b1)
                          (= F1 #b1)
                          (= ((_ extract 12 12) R1) #b1))
                      (or (bvule ((_ extract 4 0) D1) #b10001)
                          (not (= Q #b1))
                          ((_ bit2bool 12) R1)
                          (= ((_ extract 0 0) C1) #b1)
                          ((_ bit2bool 0) H1))
                      (or (= ((_ extract 1 1) C1) #b1)
                          (= S1 #b000)
                          (= D1 #b000000)
                          (not (= O1 #b0))
                          (not (= I1 #b0))
                          (not ((_ bit2bool 0) V1)))
                      (or (not (= O1 #b0))
                          (not (= S1 #b100))
                          (not ((_ bit2bool 0) V1))
                          (not ((_ bit2bool 0) A1)))
                      (or (= ((_ extract 1 1) C1) #b1)
                          (not (= Q #b1))
                          (not (= O1 #b0))
                          (not (= I1 #b0))
                          (not (= V1 #b1)))
                      (or (not (= Q #b1))
                          ((_ bit2bool 0) O1)
                          (not ((_ bit2bool 0) V1))
                          (not ((_ bit2bool 0) A1)))
                      (or (= ((_ extract 1 1) C1) #b1)
                          (= J1 #b1)
                          (not (= Q #b1))
                          (not (= O1 #b0))
                          (not ((_ bit2bool 0) V1)))
                      (or (not (= W1 #b1)) (not (= A1 #b1)))
                      (or (not (= Q #b1))
                          (not (= M #b0))
                          (not ((_ bit2bool 0) V1))
                          (not ((_ bit2bool 0) A1))
                          ((_ bit2bool 0) H1))
                      (or (not ((_ bit2bool 5) E1))
                          (= ((_ extract 0 0) S1) #b1))
                      a!18
                      (or (not (= I1 #b1)) a!20)
                      (or (= ((_ extract 5 5) D1) #b0)
                          (not (= M #b0))
                          (not (= I1 #b1)))
                      (or (= S1 #b000)
                          (= ((_ extract 5 5) D1) #b0)
                          (not (= J1 #b1))
                          (not (= O1 #b0))
                          (not (= V1 #b1)))
                      (or (= S1 #b000) a!21)
                      (or (= J1 #b1)
                          (not (= Q #b1))
                          (not (= H1 #b0))
                          ((_ bit2bool 4) D1)
                          a!22)
                      (or (= C1 #b00)
                          (not (= Q #b1))
                          (not (= Z #b0))
                          (not (= M #b0))
                          ((_ bit2bool 4) D1)
                          ((_ bit2bool 0) H1))
                      (or (not (= Q #b1))
                          (not (= Z #b0))
                          (not (= M #b0))
                          (not ((_ bit2bool 0) F1))
                          (not ((_ bit2bool 0) V1))
                          ((_ bit2bool 0) H1))
                      (or (= J1 #b1)
                          (not (= Q #b1))
                          (not (= O1 #b0))
                          ((_ bit2bool 13) N)
                          ((_ bit2bool 12) N)
                          ((_ bit2bool 16) N)
                          (not ((_ bit2bool 0) V1))
                          ((_ bit2bool 17) N)
                          (not ((_ bit2bool 0) N))
                          (= ((_ extract 13 12) H) ((_ extract 27 26) X)))
                      (or (= ((_ extract 3 3) E1) #b0)
                          (not (= Q #b1))
                          ((_ bit2bool 13) N)
                          ((_ bit2bool 18) N)
                          (not (= I #b1))
                          ((_ bit2bool 12) N)
                          ((_ bit2bool 19) N)
                          ((_ bit2bool 0) H1)
                          (not ((_ bit2bool 0) N))
                          (= ((_ extract 13 12) H) ((_ extract 29 28) X)))
                      (or (= J1 #b1)
                          (not (= Q #b1))
                          (not (= O1 #b0))
                          (not ((_ bit2bool 3) D1))
                          (not ((_ bit2bool 0) V1)))
                      (or (= J1 #b1)
                          (not (= Q #b1))
                          (not (= O1 #b0))
                          (not ((_ bit2bool 0) V1))
                          (= ((_ extract 29 28) X) ((_ extract 13 12) H))
                          (not (= N #b0000000000000001000001)))
                      (or (not (= Q #b1))
                          (not (= O1 #b0))
                          (not (= I1 #b0))
                          (not ((_ bit2bool 0) V1))
                          (= ((_ extract 29 28) X) ((_ extract 13 12) H))
                          (not (= N #b0000000000000001000001)))
                      (or (= S1 #b000)
                          (not (= O1 #b0))
                          (not (= F1 #b0))
                          (not ((_ bit2bool 0) V1))
                          (= ((_ extract 31 30) X) ((_ extract 13 12) H))
                          (not (= N #b0000000000000001000001)))
                      (or (= S1 #b000)
                          (= D1 #b000000)
                          (= J1 #b1)
                          (not (= O1 #b0))
                          (not ((_ bit2bool 0) V1))
                          (= ((_ extract 31 30) X) ((_ extract 13 12) H))
                          (not (= N #b0000000000000001000001)))
                      (or (not (= Q #b1))
                          (not (= Z #b0))
                          ((_ bit2bool 0) F1)
                          (not ((_ bit2bool 0) B1)))
                      a!23
                      a!24
                      (or (= S1 #b000)
                          (bvule ((_ extract 4 0) D1) #b10001)
                          (not (= O1 #b0))
                          (not (= V1 #b1)))
                      (or (= ((_ extract 5 5) D1) #b0)
                          (not ((_ bit2bool 4) D1)))
                      (or (= ((_ extract 5 5) D1) #b0)
                          (not ((_ bit2bool 3) D1)))
                      (or (not (= Q #b1))
                          (not (= O1 #b0))
                          (not ((_ bit2bool 1) D1))
                          (not ((_ bit2bool 0) V1)))
                      (or (= J1 #b1)
                          (= C1 #b10)
                          (not (= Q #b1))
                          (not (= O1 #b0))
                          (not ((_ bit2bool 0) D1))
                          (not ((_ bit2bool 0) V1)))
                      (or (= ((_ extract 5 5) D1) #b0)
                          (= B1 #b0)
                          ((_ bit2bool 0) F1)
                          (= ((_ extract 2 2) S1) #b1))
                      (or (= J1 #b1)
                          (= C1 #b10)
                          (not ((_ bit2bool 2) D1))
                          (not (= Q #b1))
                          (not (= O1 #b0))
                          (not ((_ bit2bool 0) V1)))
                      (or (= ((_ extract 5 5) D1) #b0) (= C1 #b10))
                      (or (not (= O1 #b0))
                          (not (= I #b1))
                          a!25
                          (not (= N #b0000000000000100000000)))
                      (or (not (= O1 #b0))
                          (not (= I #b1))
                          (= ((_ extract 29 28) X) ((_ extract 13 12) H))
                          (not (= N #b0000000000000000001000)))
                      (or (= ((_ extract 3 3) E1) #b0)
                          (= J1 #b1)
                          (not ((_ bit2bool 2) D1))
                          (not (= Q #b1))
                          (= T1 Y)
                          (not ((_ bit2bool 0) C1))
                          (not ((_ bit2bool 0) V1))
                          (= ((_ extract 13 12) H) ((_ extract 29 28) X))
                          (not (= N #b0000000000000000001000)))
                      (or (= ((_ extract 3 3) E1) #b0)
                          (= J1 #b1)
                          (not (= C1 #b10))
                          (not (= Q #b1))
                          ((_ bit2bool 5) D1)
                          (= T1 Y)
                          (not (= S #b0)))
                      (or (not (= O1 #b0)) (not a!26))
                      (or (= S1 #b000)
                          (not (= O1 #b0))
                          ((_ bit2bool 5) a!27)
                          (not ((_ bit2bool 30) a!27)))
                      (or (not (= O1 #b0)) (not a!28))
                      a!29
                      a!30
                      a!31
                      (or (= C1 #b00) (not (= N1 #b1)))
                      a!32
                      (or (= U #b1) (= C1 #b00) (= I1 #b0) (not (= M #b0)))
                      (or (= ((_ extract 5 5) D1) #b0) (not (= V1 #b0))))))
       (= (INV!slice!1 A
                       B
                       C
                       D
                       E
                       F
                       G
                       H
                       I
                       J
                       K
                       L
                       M
                       N
                       O
                       P
                       Q
                       R
                       S
                       T
                       U
                       V
                       W
                       X
                       Y
                       Z
                       A1
                       B1
                       C1
                       D1
                       E1
                       F1
                       G1
                       H1
                       I1
                       J1
                       K1
                       L1
                       M1
                       N1
                       O1
                       P1
                       Q1
                       R1
                       S1
                       T1
                       U1
                       V1
                       W1
                       X1
                       Y1
                       Z1
                       A2
                       B2
                       C2
                       D2
                       E2)
          a!33))))
     :weight 0))
